#Put Keywords Here, check Charge and Multiplicity.

 

0  1
C          -6.43939         2.66834        -0.00081
C          -5.23353         3.59329        -0.04783
H          -6.46433         2.10252         0.93601
H          -6.42030         1.95654        -0.83219
H          -7.36485         3.24844        -0.07189
C          -3.92329         2.81368         0.06299
H          -5.30458         4.31755         0.77191
H          -5.25245         4.16126        -0.98529
C          -2.71254         3.74585        -0.01440
H          -3.86588         2.07356        -0.74443
H          -3.90503         2.26048         1.00999
C          -1.40375         2.97742         0.17717
H          -2.79336         4.52123         0.75698
H          -2.70610         4.25545        -0.98570
C          -0.18780         3.88506        -0.02066
H          -1.35364         2.14667        -0.53717
H          -1.38319         2.54001         1.18289
C           1.11202         3.15757         0.32854
H          -0.28166         4.77907         0.60738
H          -0.15758         4.22460        -1.06338
C           2.33981         3.98498        -0.05713
H           1.14946         2.19219        -0.19018
H           1.12932         2.94624         1.40503
C           3.63293         3.30154         0.39194
H           2.27657         4.98175         0.39528
H           2.35379         4.12387        -1.14534
C           4.86760         4.05545        -0.10541
H           3.65816         2.27240         0.01421
H           3.65199         3.24405         1.48740
C           6.15620         3.38514         0.37154
H           4.83791         5.09189         0.25147
H           4.85639         4.09061        -1.20188
C           7.38822         4.10279        -0.15636
H           6.17950         2.34108         0.03857
H           6.18652         3.37681         1.46746
H           7.40665         4.09612        -1.25098
H           8.29689         3.60806         0.20088
H           7.41221         5.14347         0.18188

