#Put Keywords Here, check Charge and Multiplicity.

 

0  1
C          -5.62654         1.67886         0.01696
H          -5.62717         2.35487         0.87798
H          -6.54118         1.07896         0.05534
H          -5.65500         2.28358        -0.89509
C          -4.40352         0.77584         0.03376
H          -4.44851         0.09379        -0.82329
H          -4.42384         0.15977         0.94024
C          -3.10835         1.58610        -0.01409
H          -3.06795         2.26482         0.84664
H          -3.09724         2.20860        -0.91708
C          -1.88068         0.67381        -0.00603
H          -1.91840        -0.00002        -0.87073
H          -1.89459         0.04620         0.89337
C          -0.58536         1.48434        -0.04434
H          -0.53838         2.15205         0.82384
H          -0.56669         2.11537        -0.94048
C           0.63739         0.58078        -0.04523
H           0.66446        -0.04397         0.85323
H           1.55225         1.18108        -0.06934
H           0.63895        -0.07602        -0.92101

