#Put Keywords Here, check Charge and Multiplicity.

 

0  1
C          -5.64500         1.61600         0.01400
H          -5.65500         2.35600         0.82100
H          -6.52800         0.97900         0.12500
H          -5.72700         2.14600        -0.94000
C          -4.38000         0.77400         0.05900
H          -4.39600         0.05600        -0.76900
H          -4.36600         0.19600         0.99000
C          -3.12500         1.64200        -0.02600
H          -3.14163         2.20493        -0.93580
H          -2.25697         1.01658        -0.00937
H          -3.09774         2.31221         0.80765

