#Put Keywords Here, check Charge and Multiplicity.

 

0  1
C          -5.64500         1.61600         0.01400
H          -5.65500         2.35600         0.82100
H          -6.52800         0.97900         0.12500
H          -5.72700         2.14600        -0.94000
C          -4.38000         0.77400         0.05900
H          -4.39735         0.06132        -0.73893
H          -4.32715         0.25948         0.99568
H          -3.52516         1.40858        -0.04808

