#Put Keywords Here, check Charge and Multiplicity.

 

0  1
C          -5.70190         1.61323        -0.01096
H          -5.73441         2.28007         0.85660
H          -6.59445         0.98027         0.01366
H          -5.74458         2.22582        -0.91719
C          -4.44692         0.75505         0.00830
H          -4.46125         0.07721        -0.85307
H          -4.45070         0.13318         0.91104
C          -3.18228         1.61251        -0.02672
H          -3.17818         2.29561         0.83148
H          -3.18331         2.23177        -0.93207
C          -1.92076         0.74763         0.00150
H          -1.92304         0.06483        -0.85677
H          -1.91985         0.12921         0.90732
C          -0.65772         1.60940        -0.03233
H          -0.66246         2.30017         0.81968
H          -0.65467         2.22037        -0.94328
C           0.60788         0.75119         0.01316
H           0.61699         0.06170        -0.83966
H           0.60474         0.14012         0.92394
C           1.86521         1.62151        -0.01656
H           1.84633         2.32092         0.82820
H           1.87295         2.22328        -0.93359
C           3.13743         0.77488         0.05085
H           3.16298         0.07873        -0.79619
H           3.12903         0.17116         0.96649
C           4.38677         1.65724         0.02940
H           4.35139         2.36225         0.86893
H           4.39933         2.25267        -0.89172
C           5.66607         0.82363         0.11712
H           5.70948         0.12505        -0.72722
H           5.65114         0.22264         1.03448
C           6.90782         1.71715         0.10996
H           6.85849         2.42019         0.95048
H           6.92496         2.31471        -0.80972
C           8.19091         0.89289         0.20833
H           8.25320         0.19800        -0.63713
H           8.17777         0.29032         1.12397
C           9.42356         1.78320         0.21537
H           9.48328         2.37807        -0.70165
H          10.33063         1.17485         0.28561
H           9.40736         2.46849         1.06896

