#Put Keywords Here, check Charge and Multiplicity.

 

0  1
C          -5.70503         1.60652        -0.01657
H          -5.73985         2.27625         0.84867
H          -6.59666         0.97230         0.00882
H          -5.74720         2.21591        -0.92498
C          -4.44892         0.75023         0.00752
H          -4.46101         0.06951        -0.85161
H          -4.45323         0.13129         0.91228
C          -3.18523         1.60910        -0.02835
H          -3.18251         2.29422         0.82824
H          -3.18596         2.22616        -0.93519
C          -1.92331         0.74506         0.00298
H          -1.92480         0.06013        -0.85360
H          -1.92284         0.12881         0.91030
C          -0.66022         1.60660        -0.03204
H          -0.66419         2.29792         0.81953
H          -0.65723         2.21694        -0.94341
C           0.60452         0.74709         0.01326
H           0.61237         0.05722        -0.83924
H           0.60112         0.13647         0.92434
C           1.86294         1.61545        -0.01750
H           1.84610         2.31416         0.82791
H           1.87049         2.21813        -0.93395
C           3.13401         0.76664         0.04757
H           3.15828         0.07173        -0.80046
H           3.12559         0.16186         0.96249
C           4.38353         1.64821         0.02628
H           4.34613         2.35488         0.86441
H           4.39756         2.24220        -0.89576
C           5.66400         0.81660         0.11867
H           5.71272         0.11713        -0.72456
H           5.64752         0.21719         1.03700
C           6.90132         1.71595         0.11439
H           6.83618         2.43061         0.94398
H           6.92648         2.30049        -0.81344
C           8.19091         0.90401         0.24293
H           8.26877         0.19918        -0.59367
H           8.16141         0.31089         1.16502
C           9.41638         1.81968         0.26111
C          10.71023         1.02239         0.41982
H           9.32555         2.53722         1.08579
H           9.45428         2.40045        -0.66869
C          11.92424         1.93740         0.45551
H          10.81632         0.31429        -0.41014
H          10.67552         0.43584         1.34525
H          12.00690         2.51598        -0.47012
H          12.83974         1.34912         0.57179
H          11.86230         2.63836         1.29420

