#Put Keywords Here, check Charge and Multiplicity.

 

0  1
C          -5.64500         1.61600         0.01400
H          -4.57500         1.61600         0.01400
H          -6.00166         2.48809        -0.49310
H          -6.00167         1.61911         1.02280
H          -6.00167         0.74080        -0.48770

