#Put Keywords Here, check Charge and Multiplicity.

 

0  1
C          -5.67408         1.62954         0.01354
H          -5.69541         2.29041         0.88594
H          -6.56846         0.99932         0.04311
H          -5.72396         2.24823        -0.88814
C          -4.42232         0.76682         0.01391
H          -4.44706         0.09629        -0.85288
H          -4.42083         0.13704         0.91130
C          -3.15364         1.61864        -0.02431
H          -3.13794         2.29255         0.84087
H          -3.15870         2.24696        -0.92337
C          -1.89853         0.74456        -0.01602
H          -1.90996         0.07620        -0.88552
H          -1.90007         0.11049         0.87907
C          -0.62619         1.59330        -0.03923
H          -0.62370         2.27484         0.82002
H          -0.61345         2.21320        -0.94404
C           0.62600         0.71568         0.00069
H           0.62860         0.03841        -0.86203
H           0.60639         0.09051         0.90181
C           1.89973         1.56031        -0.00783
C           3.14421         0.69040         0.07176
H           1.89287         2.25474         0.84027
H           1.93961         2.16433        -0.92181
H           3.15089         0.09986         0.99363
H           4.04387         1.31358         0.06174
H           3.19746         0.00210        -0.77769

