#Put Keywords Here, check Charge and Multiplicity.

 

0  1
C          -5.64471         1.61602         0.01372
H          -5.65476         2.35581         0.82052
H          -6.52803         0.97940         0.12495
H          -5.72686         2.14650        -0.94032
C          -4.37969         0.77387         0.05883
H          -4.39624         0.05555        -0.76910
H          -4.36587         0.19550         0.98998
C          -3.12492         1.64249        -0.02634
H          -3.10010         2.33207         0.82644
H          -3.15954         2.25503        -0.93549
C          -1.85720         0.78865        -0.03462
H          -1.85453         0.13900        -0.91781
H          -1.83763         0.13770         0.84700
C          -0.60479         1.65056        -0.04463
H          -0.58535         2.30688        -0.92038
H           0.28924         1.01978        -0.07192
H          -0.55236         2.27410         0.85374

