#Put Keywords Here, check Charge and Multiplicity.

 

0  1
C          -5.73419         1.62681         0.00408
H          -5.76029         2.28775         0.87635
H          -6.62776         0.99532         0.02976
H          -5.78101         2.24552        -0.89775
C          -4.48090         0.76616         0.01016
H          -4.50142         0.09435        -0.85582
H          -4.48111         0.13782         0.90846
C          -3.21432         1.62098        -0.02567
H          -3.20428         2.29849         0.83687
H          -3.21767         2.24575        -0.92716
C          -1.95590         0.75173        -0.00851
H          -1.96361         0.07578        -0.87222
H          -1.95518         0.12568         0.89211
C          -0.68816         1.60710        -0.03875
H          -0.68819         2.29369         0.81658
H          -0.68093         2.22189        -0.94702
C           0.57001         0.73829         0.00341
H           0.57341         0.05326        -0.85314
H           0.55912         0.12177         0.91051
C           1.83807         1.59339        -0.01932
H           1.82493         2.29253         0.82568
H           1.85932         2.19472        -0.93635
C           3.09535         0.72549         0.05536
H           3.11065         0.02597        -0.78930
H           3.07180         0.12411         0.97238
C           4.36277         1.57956         0.03613
H           4.34766         2.28825         0.87232
H           4.40080         2.16837        -0.88775
C           5.61406         0.72144         0.13347
H           5.62288         0.14545         1.06439
H           6.50846         1.35203         0.11610
H           5.67575         0.02058        -0.70513

