#Put Keywords Here, check Charge and Multiplicity.

 

0  1
C          -5.64700         1.61500         0.02000
H          -5.66900         2.28300         0.88700
H          -6.54200         0.98500         0.05300
H          -5.69600         2.22700        -0.88600
C          -4.39500         0.75200         0.02800
H          -4.41700         0.07800        -0.83500
H          -4.39400         0.12800         0.92900
C          -3.12900         1.60800        -0.01200
H          -3.11300         2.27900         0.85500
H          -3.14000         2.23900        -0.90900
C          -1.86800         0.74200        -0.01300
H          -1.87800         0.07900        -0.88600
H          -1.85900         0.10300         0.87900
C          -0.60600         1.60500        -0.03600
H          -0.59400         2.26100         0.84300
H          -0.62000         2.25300        -0.92200
C           0.65900         0.74800        -0.05200
H           0.66100         0.10300        -0.93900
H           0.67700         0.09200         0.82600
C           1.91300         1.60800        -0.05800
H           1.93800         2.25900        -0.93700
H           2.80600         0.97700        -0.07600
H           1.96000         2.23800         0.83700

